<number of tasks>
50

<cycle time>
1000

<order strength>
0.197


<task times>
1 105
2 111
3 231
4 249
5 82
6 55
7 107
8 62
9 119
10 117
11 224
12 82
13 77
14 142
15 176
16 198
17 38
18 143
19 303
20 86
21 158
22 198
23 211
24 153
25 186
26 33
27 86
28 46
29 169
30 182
31 233
32 68
33 238
34 55
35 170
36 81
37 164
38 206
39 147
40 105
41 112
42 72
43 33
44 48
45 216
46 124
47 121
48 250
49 67
50 64

<precedence relations>
1,32
2,8
2,11
3,9
3,13
4,10
4,12
5,14
8,17
9,16
10,18
10,30
12,15
13,19
15,32
16,22
17,23
18,24
19,20
19,21
19,25
20,32
21,32
22,27
23,28
24,29
25,26
25,30
25,31
26,32
27,35
28,33
29,34
30,36
32,37
32,38
32,39
32,40
33,41
34,42
36,43
37,46
38,48
38,49
38,50
40,47
41,45
42,44

<end>
